Traveling Salesman Problem/TSP_generados/Aleatorio1621103261_7.tsp
NAME: Aleatorio1621103261_7.tsp
COMMENT: Randomly generated scenario
TYPE: TSP
DIMENSION: 7
EDGE_WEIGHT_TYPE: ATT
NODE_COORD_SECTION
1 41.08 49.39
2 22.01 22.17
3 13.65 11.16
4 17.92 24.8
5 32.58 8.35
6 43.64 4.06
7 27.99 28.79
