Traveling Salesman Problem/TSP_generados/Aleatorio1621103261_7.opt.tour
NAME: Aleatorio1621103261_7.opt.tour
COMMENT: Optimal solution for Aleatorio1621103261_7 (128.88604370328343)
TYPE: TOUR
DIMENSION: 7
TOUR_SECTION
1 6 5 3 4 2 7
-1
EOF
